NAME : n100w100.004.684.tour
COMMENT : Length = 684
COMMENT : Found by LKH [Keld Helsgaun] Tue May  2 05:19:09 2017
TYPE : TOUR
DIMENSION : 101
TOUR_SECTION
1
98
13
79
23
70
28
90
16
12
58
72
49
40
35
4
14
96
95
77
100
20
93
55
53
31
92
8
41
42
26
44
25
63
43
34
48
45
3
91
39
19
66
80
89
5
65
37
76
60
83
75
22
97
61
11
18
71
33
69
81
74
78
59
68
32
82
30
67
73
36
86
84
52
54
15
21
7
57
50
62
24
38
10
99
88
87
29
47
46
27
51
9
6
64
56
2
17
85
101
94
-1
EOF
